%%%mzn-stat: initTime=0.028667923
%%%mzn-stat: objective=378
%%%mzn-stat: nodes=512
%%%mzn-stat: restarts=0
%%%mzn-stat: peakDepth=133
%%%mzn-stat: solveTime=0.043180609
%%%mzn-stat: variables=526
%%%mzn-stat: propagators=368
%%%mzn-stat: failures=379
%%%mzn-stat: propagations=106932
%%%mzn-stat: nogoods=379
%%%mzn-stat: AverageConflictSize=2.1266490765171504
%%%mzn-stat: NumUnitNogoodsLearned=377
%%%mzn-stat: AverageLearnedNogoodLength=1.1319261213720317
%%%mzn-stat: AverageBacktrackAmount=0
%%%mzn-stat: AverageLbd=1.0052770448548813
%%%mzn-stat-end
maxleg = 378;
succ = array1d(1..20,[4, 7, 12, 10, 1, 18, 19, 15, 14, 9, 6, 11, 3, 20, 2, 8, 5, 17, 13, 16]);
% time elapsed: 9.03 s
----------
==========
% time elapsed: 9.03 s
%%%mzn-stat: initTime=0.028667923
%%%mzn-stat: objective=378
%%%mzn-stat: nodes=512
%%%mzn-stat: restarts=0
%%%mzn-stat: peakDepth=133
%%%mzn-stat: solveTime=0.043187882
%%%mzn-stat: variables=526
%%%mzn-stat: propagators=368
%%%mzn-stat: failures=379
%%%mzn-stat: propagations=106932
%%%mzn-stat: nogoods=379
%%%mzn-stat: AverageConflictSize=2.1266490765171504
%%%mzn-stat: NumUnitNogoodsLearned=377
%%%mzn-stat: AverageLearnedNogoodLength=1.1319261213720317
%%%mzn-stat: AverageBacktrackAmount=0
%%%mzn-stat: AverageLbd=1.0052770448548813
%%%mzn-stat-end
